language ESSENCE' 1.0
$ minion Nodes: 1
$ minion TotalTime: 0.000889
$ Savile Row TotalTime: 0.348
letting x_SetExplicitVarSize_tuple2_tuple1_SetExplicit be [[6, 7;int(1..2)];int(1..1)]
letting x_SetExplicitVarSize_tuple1 be [true;int(1..1)]
